\ENCODING=ISO-8859-1
\Problem name: ilog.cplex

Minimize
 obj1: 95353 x1 + 101009 x2 + 99929 x3 + 96778 x4 + 106370 x5 + 105278 x6
       + 105877 x7 + 90660 x8 + 108500 x9 + 93473 x10 + 93852 x11 + 103444 x12
       + 97900 x13 + 93517 x14 + 103247 x15 + 93605 x16 + 104286 x17
       + 90551 x18 + 100579 x19 + 99364 x20 + 102439 x21 + 94668 x22
       + 102341 x23 + 108230 x24 + 90596 x25 + 93830 x26 + 99901 x27
       + 102983 x28 + 92459 x29 + 100148 x30 + 97348 x31 + 103067 x32
       + 91808 x33 + 109448 x34 + 95717 x35 + 94919 x36 + 106486 x37
       + 96404 x38 + 95157 x39 + 99938 x40 + 92022 x41 + 100523 x42
       + 100377 x43 + 104599 x44 + 94220 x45 + 101856 x46 + 104105 x47
       + 93635 x48 + 104743 x49 + 99578 x50 + 108312 x51 + 104268 x52
       + 94079 x53 + 91400 x54 + 103595 x55 + 97149 x56 + 102205 x57
       + 107321 x58 + 103387 x59 + 97952 x60 + 102515 x61 + 102552 x62
       + 109078 x63 + 109451 x64 + 97952 x65 + 90236 x66 + 100186 x67
       + 91678 x68 + 92348 x69 + 98078 x70 + 105230 x71 + 98511 x72
       + 106446 x73 + 107787 x74 + 109343 x75 + 107410 x76 + 102155 x77
       + 92717 x78 + 96972 x79 + 96006 x80 + 104777 x81 + 103259 x82
       + 95522 x83 + 94617 x84 + 98495 x85 + 102007 x86 + 93721 x87
       + 107624 x88 + 98007 x89 + 95772 x90 + 105695 x91 + 109911 x92
       + 103069 x93 + 93709 x94 + 93505 x95 + 97116 x96 + 107312 x97
       + 108661 x98 + 93226 x99 + 96567 x100 + 97819 x101 + 92297 x102
       + 92664 x103 + 109556 x104 + 107803 x105 + 93664 x106 + 102412 x107
       + 94995 x108 + 91109 x109 + 95527 x110 + 106179 x111 + 99513 x112
       + 94340 x113 + 93163 x114 + 91192 x115 + 109716 x116 + 90072 x117
       + 96268 x118 + 104970 x119 + 108570 x120 + 99798 x121 + 109196 x122
       + 107822 x123 + 101489 x124 + 101663 x125 + 100262 x126 + 108775 x127
       + 106619 x128 + 104700 x129 + 90234 x130 + 95919 x131 + 99926 x132
       + 96674 x133 + 99023 x134 + 104734 x135 + 107775 x136 + 102486 x137
       + 93505 x138 + 105595 x139 + 92368 x140 + 106744 x141 + 101459 x142
       + 106947 x143 + 101442 x144 + 102349 x145 + 105675 x146 + 96164 x147
       + 107239 x148 + 99757 x149 + 98878 x150 + 95468 x151 + 108543 x152
       + 98414 x153 + 94095 x154 + 102473 x155 + 101333 x156 + 104443 x157
       + 99598 x158 + 102806 x159 + 105966 x160 + 96756 x161 + 102762 x162
       + 105651 x163 + 91789 x164 + 97559 x165 + 102951 x166 + 102184 x167
       + 103688 x168 + 92607 x169 + 90002 x170 + 101563 x171 + 109327 x172
       + 91593 x173 + 101900 x174 + 99471 x175 + 90699 x176 + 99678 x177
       + 92929 x178 + 100152 x179 + 99070 x180 + 98558 x181 + 98579 x182
       + 108780 x183 + 93890 x184 + 100280 x185 + 101627 x186 + 108356 x187
       + 102436 x188 + 96397 x189 + 96264 x190 + 108190 x191 + 98537 x192
       + 101349 x193 + 102114 x194 + 100878 x195 + 90992 x196 + 96218 x197
       + 93474 x198 + 100492 x199 + 94402 x200 + 91355 x201 + 92865 x202
       + 95897 x203 + 94044 x204 + 92301 x205 + 102113 x206 + 96115 x207
       + 101325 x208 + 94521 x209 + 90884 x210 + 106220 x211 + 107500 x212
       + 103545 x213 + 99534 x214 + 96164 x215 + 105565 x216 + 98909 x217
       + 105633 x218 + 109518 x219 + 98034 x220 + 92589 x221 + 91656 x222
       + 104253 x223 + 101813 x224 + 95666 x225 + 95131 x226 + 103502 x227
       + 100418 x228 + 100522 x229 + 101901 x230 + 100679 x231 + 98526 x232
       + 90156 x233 + 98200 x234 + 90356 x235 + 104160 x236 + 101021 x237
       + 107870 x238 + 104006 x239 + 99781 x240 + 105129 x241 + 102741 x242
       + 92740 x243 + 90138 x244 + 101863 x245 + 90527 x246 + 91553 x247
       + 90720 x248 + 102899 x249 + 93789 x250 + 103317 x251 + 103967 x252
       + 107778 x253 + 106407 x254 + 103958 x255 + 106881 x256 + 109492 x257
       + 107106 x258 + 91699 x259 + 103663 x260 + 107906 x261 + 96739 x262
       + 92998 x263 + 106071 x264 + 100232 x265 + 90581 x266 + 102515 x267
       + 102697 x268 + 99985 x269 + 103973 x270 + 102347 x271 + 93479 x272
       + 102416 x273 + 90741 x274 + 92684 x275 + 99658 x276 + 106640 x277
       + 105564 x278 + 108580 x279 + 93960 x280 + 102499 x281 + 103829 x282
       + 95635 x283 + 90964 x284 + 93654 x285 + 105493 x286 + 91184 x287
       + 93394 x288 + 97502 x289 + 93100 x290 + 106977 x291 + 106523 x292
       + 97185 x293 + 108305 x294 + 94347 x295 + 109921 x296 + 101338 x297
       + 96177 x298 + 93523 x299 + 93436 x300 + 102636 x301 + 101773 x302
       + 91277 x303 + 92672 x304 + 97820 x305 + 106853 x306 + 100969 x307
       + 96429 x308 + 90305 x309 + 108703 x310 + 96146 x311 + 94056 x312
       + 99820 x313 + 106449 x314 + 105745 x315 + 92309 x316 + 97694 x317
       + 99479 x318 + 98527 x319 + 100442 x320 + 101895 x321 + 107787 x322
       + 100148 x323 + 109950 x324 + 92083 x325 + 91954 x326 + 101996 x327
       + 109821 x328 + 95460 x329 + 104506 x330 + 92901 x331 + 107873 x332
       + 97552 x333 + 100977 x334 + 95981 x335 + 105637 x336 + 95948 x337
       + 101174 x338 + 94603 x339 + 106768 x340 + 99594 x341 + 99027 x342
       + 103805 x343 + 107127 x344 + 101388 x345 + 92819 x346 + 106524 x347
       + 98421 x348 + 97668 x349 + 106692 x350 + 107572 x351 + 96702 x352
       + 94560 x353 + 99035 x354 + 102546 x355 + 102045 x356 + 108240 x357
       + 103691 x358 + 93735 x359 + 106341 x360 + 92470 x361 + 105902 x362
       + 96157 x363 + 108158 x364 + 109936 x365 + 102673 x366 + 93602 x367
       + 104633 x368 + 109640 x369 + 95150 x370 + 100867 x371 + 94516 x372
       + 93555 x373 + 93131 x374 + 93936 x375 + 104379 x376 + 103872 x377
       + 90395 x378 + 92130 x379 + 94852 x380 + 100565 x381 + 103021 x382
       + 104261 x383 + 102655 x384 + 96336 x385 + 106782 x386 + 102039 x387
       + 96121 x388 + 93576 x389 + 92230 x390 + 92738 x391 + 108133 x392
       + 99198 x393 + 109405 x394 + 109786 x395 + 91553 x396 + 100153 x397
       + 108016 x398 + 92082 x399 + 93931 x400 + 104891 x401 + 93486 x402
       + 100738 x403 + 90654 x404 + 94252 x405 + 94454 x406 + 105347 x407
       + 108690 x408 + 98957 x409 + 93098 x410 + 100993 x411 + 96683 x412
       + 90337 x413 + 106087 x414 + 91921 x415 + 91407 x416 + 95919 x417
       + 101019 x418 + 98101 x419 + 95432 x420 + 96364 x421 + 102637 x422
       + 107282 x423 + 103664 x424 + 104124 x425 + 102895 x426 + 92470 x427
       + 92108 x428 + 99461 x429 + 98596 x430 + 109010 x431 + 98515 x432
       + 94278 x433 + 109390 x434 + 107036 x435 + 101838 x436 + 102313 x437
       + 107583 x438 + 109106 x439 + 106182 x440 + 107356 x441 + 96131 x442
       + 94455 x443 + 91706 x444 + 95402 x445 + 100202 x446 + 106384 x447
       + 105333 x448 + 107014 x449 + 92235 x450 + 109240 x451 + 103647 x452
       + 106645 x453 + 91693 x454 + 104708 x455 + 96912 x456 + 96807 x457
       + 97600 x458 + 101082 x459 + 105348 x460 + 106681 x461 + 104482 x462
       + 93733 x463 + 106670 x464 + 97152 x465 + 100446 x466 + 100160 x467
       + 107298 x468 + 107225 x469 + 109950 x470 + 98810 x471 + 108783 x472
       + 100397 x473 + 103158 x474 + 107292 x475 + 105659 x476 + 93801 x477
       + 108839 x478 + 102644 x479 + 101280 x480 + 104167 x481 + 99192 x482
       + 94778 x483 + 106276 x484 + 108956 x485 + 97289 x486 + 102333 x487
       + 102534 x488 + 93248 x489 + 108932 x490 + 90357 x491 + 101977 x492
       + 94507 x493 + 95763 x494 + 97261 x495 + 101048 x496 + 109583 x497
       + 95169 x498 + 90226 x499 + 95617 x500 + 103559 x501 + 94845 x502
       + 100035 x503 + 93818 x504 + 104285 x505 + 100225 x506 + 90649 x507
       + 101102 x508 + 94317 x509 + 93840 x510 + 98786 x511 + 91759 x512
       + 92938 x513 + 96184 x514 + 109985 x515 + 94450 x516 + 107516 x517
       + 98778 x518 + 104586 x519 + 93227 x520 + 105651 x521 + 91835 x522
       + 109535 x523 + 100081 x524 + 97405 x525 + 91341 x526 + 90084 x527
       + 90192 x528 + 100377 x529 + 103295 x530 + 109223 x531 + 106911 x532
       + 109436 x533 + 106517 x534 + 92082 x535 + 99884 x536 + 107667 x537
       + 109645 x538 + 97546 x539 + 96810 x540 + 106973 x541 + 100071 x542
       + 99907 x543 + 100261 x544 + 93022 x545 + 101597 x546 + 93768 x547
       + 97082 x548 + 106363 x549 + 104405 x550 + 102687 x551 + 97259 x552
       + 101109 x553 + 91055 x554 + 94879 x555 + 106623 x556 + 101685 x557
       + 100059 x558 + 94809 x559 + 102069 x560 + 100008 x561 + 104993 x562
       + 104280 x563 + 99625 x564 + 99561 x565 + 91575 x566 + 90279 x567
       + 103460 x568 + 105770 x569 + 94735 x570 + 101499 x571 + 106373 x572
       + 104716 x573 + 108678 x574 + 95898 x575 + 93588 x576 + 95570 x577
       + 99474 x578 + 92815 x579 + 98574 x580 + 106023 x581 + 91983 x582
       + 104853 x583 + 92131 x584 + 104554 x585 + 90696 x586 + 97151 x587
       + 94102 x588 + 108554 x589 + 107562 x590 + 104617 x591 + 100888 x592
       + 93112 x593 + 108949 x594 + 91318 x595 + 101294 x596 + 91715 x597
       + 98584 x598 + 100489 x599 + 142090 x600 + 439929 x601 + 408088 x602
       + 380733 x603 + 379478 x604 + 422166 x605 + 368017 x606 + 405285 x607
       + 436257 x608 + 400501 x609 + 365871 x610 + 424593 x611 + 364746 x612
       + 368861 x613 + 418876 x614 + 438847 x615 + 411748 x616 + 387791 x617
       + 409649 x618 + 378773 x619 + 420157 x620 + 421797 x621 + 399955 x622
       + 433309 x623 + 377605 x624 + 391832 x625 + 401724 x626 + 433412 x627
       + 373036 x628 + 366940 x629 + 412275 x630 + 398535 x631 + 370328 x632
       + 426017 x633 + 431972 x634 + 373038 x635 + 383205 x636 + 415108 x637
       + 361409 x638 + 427973 x639 + 398240 x640 + 407619 x641 + 401517 x642
       + 379428 x643 + 422819 x644 + 424252 x645 + 413835 x646 + 417764 x647
       + 412553 x648 + 406451 x649 + 439498 x650 + 372835 x651 + 437643 x652
       + 401592 x653 + 384349 x654 + 438441 x655 + 400347 x656 + 410083 x657
       + 433866 x658 + 405006 x659 + 162026 x660
Subject To
 c1:   x1 - x11 - x24 - x29 + x30 - x36 + x39 + x45  = 0
 c2:   x61 - x71 - x84 - x89 + x90 - x96 + x99 + x105  = 0
 c3:   x121 - x131 - x144 - x149 + x150 - x156 + x159 + x165  = 0
 c4:   x181 - x191 - x204 - x209 + x210 - x216 + x219 + x225  = 0
 c5:   x241 - x251 - x264 - x269 + x270 - x276 + x279 + x285  = 0
 c6:   x301 - x311 - x324 - x329 + x330 - x336 + x339 + x345  = 0
 c7:   x361 - x371 - x384 - x389 + x390 - x396 + x399 + x405  = -1
 c8:   x421 - x431 - x444 - x449 + x450 - x456 + x459 + x465  = 1
 c9:   x481 - x491 - x504 - x509 + x510 - x516 + x519 + x525  = 0
 c10:  x541 - x551 - x564 - x569 + x570 - x576 + x579 + x585  = 0
 c11:  - x2 + x7 - x21 + x41 - x46 - x56  = 0
 c12:  - x62 + x67 - x81 + x101 - x106 - x116  = 0
 c13:  - x122 + x127 - x141 + x161 - x166 - x176  = 0
 c14:  - x182 + x187 - x201 + x221 - x226 - x236  = 0
 c15:  - x242 + x247 - x261 + x281 - x286 - x296  = 0
 c16:  - x302 + x307 - x321 + x341 - x346 - x356  = 0
 c17:  - x362 + x367 - x381 + x401 - x406 - x416  = 0
 c18:  - x422 + x427 - x441 + x461 - x466 - x476  = 0
 c19:  - x482 + x487 - x501 + x521 - x526 - x536  = 0
 c20:  - x542 + x547 - x561 + x581 - x586 - x596  = 0
 c21:  - x7 - x9 + x11 + x38 + x50 - x53 - x54  = 0
 c22:  - x67 - x69 + x71 + x98 + x110 - x113 - x114  = 0
 c23:  - x127 - x129 + x131 + x158 + x170 - x173 - x174  = 0
 c24:  - x187 - x189 + x191 + x218 + x230 - x233 - x234  = 0
 c25:  - x247 - x249 + x251 + x278 + x290 - x293 - x294  = 0
 c26:  - x307 - x309 + x311 + x338 + x350 - x353 - x354  = 0
 c27:  - x367 - x369 + x371 + x398 + x410 - x413 - x414  = 0
 c28:  - x427 - x429 + x431 + x458 + x470 - x473 - x474  = 0
 c29:  - x487 - x489 + x491 + x518 + x530 - x533 - x534  = -1
 c30:  - x547 - x549 + x551 + x578 + x590 - x593 - x594  = 0
 c31:  - x1 - x28 - x37 + x47 + x48  = 0
 c32:  - x61 - x88 - x97 + x107 + x108  = 0
 c33:  - x121 - x148 - x157 + x167 + x168  = 0
 c34:  - x181 - x208 - x217 + x227 + x228  = 0
 c35:  - x241 - x268 - x277 + x287 + x288  = 0
 c36:  - x301 - x328 - x337 + x347 + x348  = 0
 c37:  - x361 - x388 - x397 + x407 + x408  = 0
 c38:  - x421 - x448 - x457 + x467 + x468  = 0
 c39:  - x481 - x508 - x517 + x527 + x528  = 0
 c40:  - x541 - x568 - x577 + x587 + x588  = 0
 c41:  x5 + x6 - x20 - x34 - x40 + x44 + x58  = 0
 c42:  x65 + x66 - x80 - x94 - x100 + x104 + x118  = 0
 c43:  x125 + x126 - x140 - x154 - x160 + x164 + x178  = 1
 c44:  x185 + x186 - x200 - x214 - x220 + x224 + x238  = 0
 c45:  x245 + x246 - x260 - x274 - x280 + x284 + x298  = 0
 c46:  x305 + x306 - x320 - x334 - x340 + x344 + x358  = 0
 c47:  x365 + x366 - x380 - x394 - x400 + x404 + x418  = 0
 c48:  x425 + x426 - x440 - x454 - x460 + x464 + x478  = 0
 c49:  x485 + x486 - x500 - x514 - x520 + x524 + x538  = 0
 c50:  x545 + x546 - x560 - x574 - x580 + x584 + x598  = 0
 c51:  - x5 - x14 - x25 + x36 + x40 + x43 - x45 + x57  = 0
 c52:  - x65 - x74 - x85 + x96 + x100 + x103 - x105 + x117  = 1
 c53:  - x125 - x134 - x145 + x156 + x160 + x163 - x165 + x177  = 0
 c54:  - x185 - x194 - x205 + x216 + x220 + x223 - x225 + x237  = 0
 c55:  - x245 - x254 - x265 + x276 + x280 + x283 - x285 + x297  = -1
 c56:  - x305 - x314 - x325 + x336 + x340 + x343 - x345 + x357  = 0
 c57:  - x365 - x374 - x385 + x396 + x400 + x403 - x405 + x417  = 0
 c58:  - x425 - x434 - x445 + x456 + x460 + x463 - x465 + x477  = 0
 c59:  - x485 - x494 - x505 + x516 + x520 + x523 - x525 + x537  = 0
 c60:  - x545 - x554 - x565 + x576 + x580 + x583 - x585 + x597  = 0
 c61:  x9 + x10 + x15 - x17 + x22 + x27 + x32 - x60  = 1
 c62:  x69 + x70 + x75 - x77 + x82 + x87 + x92 - x120  = 0
 c63:  x129 + x130 + x135 - x137 + x142 + x147 + x152 - x180  = 0
 c64:  x189 + x190 + x195 - x197 + x202 + x207 + x212 - x240  = 0
 c65:  x249 + x250 + x255 - x257 + x262 + x267 + x272 - x300  = 0
 c66:  x309 + x310 + x315 - x317 + x322 + x327 + x332 - x360  = 0
 c67:  x369 + x370 + x375 - x377 + x382 + x387 + x392 - x420  = 0
 c68:  x429 + x430 + x435 - x437 + x442 + x447 + x452 - x480  = 0
 c69:  x489 + x490 + x495 - x497 + x502 + x507 + x512 - x540  = 1
 c70:  x549 + x550 + x555 - x557 + x562 + x567 + x572 - x600  = 0
 c71:  - x13 + x19 + x46 - x51 + x54 + x60  = 0
 c72:  - x73 + x79 + x106 - x111 + x114 + x120  = 0
 c73:  - x133 + x139 + x166 - x171 + x174 + x180  = 0
 c74:  - x193 + x199 + x226 - x231 + x234 + x240  = 0
 c75:  - x253 + x259 + x286 - x291 + x294 + x300  = 0
 c76:  - x313 + x319 + x346 - x351 + x354 + x360  = 0
 c77:  - x373 + x379 + x406 - x411 + x414 + x420  = 0
 c78:  - x433 + x439 + x466 - x471 + x474 + x480  = 0
 c79:  - x493 + x499 + x526 - x531 + x534 + x540  = 0
 c80:  - x553 + x559 + x586 - x591 + x594 + x600  = -1
 c81:  - x6 - x10 + x16 + x20 + x21 + x26 - x48  = 0
 c82:  - x66 - x70 + x76 + x80 + x81 + x86 - x108  = -1
 c83:  - x126 - x130 + x136 + x140 + x141 + x146 - x168  = -1
 c84:  - x186 - x190 + x196 + x200 + x201 + x206 - x228  = 1
 c85:  - x246 - x250 + x256 + x260 + x261 + x266 - x288  = 0
 c86:  - x306 - x310 + x316 + x320 + x321 + x326 - x348  = 1
 c87:  - x366 - x370 + x376 + x380 + x381 + x386 - x408  = 0
 c88:  - x426 - x430 + x436 + x440 + x441 + x446 - x468  = 0
 c89:  - x486 - x490 + x496 + x500 + x501 + x506 - x528  = 0
 c90:  - x546 - x550 + x556 + x560 + x561 + x566 - x588  = 0
 c91:  - x3 + x12 + x18 - x30 + x31 + x34 + x53  = 0
 c92:  - x63 + x72 + x78 - x90 + x91 + x94 + x113  = 0
 c93:  - x123 + x132 + x138 - x150 + x151 + x154 + x173  = 0
 c94:  - x183 + x192 + x198 - x210 + x211 + x214 + x233  = 0
 c95:  - x243 + x252 + x258 - x270 + x271 + x274 + x293  = 0
 c96:  - x303 + x312 + x318 - x330 + x331 + x334 + x353  = 0
 c97:  - x363 + x372 + x378 - x390 + x391 + x394 + x413  = 0
 c98:  - x423 + x432 + x438 - x450 + x451 + x454 + x473  = 0
 c99:  - x483 + x492 + x498 - x510 + x511 + x514 + x533  = 0
 c100: - x543 + x552 + x558 - x570 + x571 + x574 + x593  = 1
 c101: x14 - x18 - x23 + x24 - x27 + x28 - x35 - x41 + x42 - x47 - x50 - x52
       - x55  = 0
 c102: x74 - x78 - x83 + x84 - x87 + x88 - x95 - x101 + x102 - x107 - x110
       - x112 - x115  = 0
 c103: x134 - x138 - x143 + x144 - x147 + x148 - x155 - x161 + x162 - x167
       - x170 - x172 - x175  = 0
 c104: x194 - x198 - x203 + x204 - x207 + x208 - x215 - x221 + x222 - x227
       - x230 - x232 - x235  = -1
 c105: x254 - x258 - x263 + x264 - x267 + x268 - x275 - x281 + x282 - x287
       - x290 - x292 - x295  = 0
 c106: x314 - x318 - x323 + x324 - x327 + x328 - x335 - x341 + x342 - x347
       - x350 - x352 - x355  = 0
 c107: x374 - x378 - x383 + x384 - x387 + x388 - x395 - x401 + x402 - x407
       - x410 - x412 - x415  = 0
 c108: x434 - x438 - x443 + x444 - x447 + x448 - x455 - x461 + x462 - x467
       - x470 - x472 - x475  = 0
 c109: x494 - x498 - x503 + x504 - x507 + x508 - x515 - x521 + x522 - x527
       - x530 - x532 - x535  = 0
 c110: x554 - x558 - x563 + x564 - x567 + x568 - x575 - x581 + x582 - x587
       - x590 - x592 - x595  = 0
 c111: x3 - x4 + x13 - x15 + x23 - x26 - x38 - x57 - x59  = -1
 c112: x63 - x64 + x73 - x75 + x83 - x86 - x98 - x117 - x119  = 0
 c113: x123 - x124 + x133 - x135 + x143 - x146 - x158 - x177 - x179  = 0
 c114: x183 - x184 + x193 - x195 + x203 - x206 - x218 - x237 - x239  = 0
 c115: x243 - x244 + x253 - x255 + x263 - x266 - x278 - x297 - x299  = 0
 c116: x303 - x304 + x313 - x315 + x323 - x326 - x338 - x357 - x359  = -1
 c117: x363 - x364 + x373 - x375 + x383 - x386 - x398 - x417 - x419  = 1
 c118: x423 - x424 + x433 - x435 + x443 - x446 - x458 - x477 - x479  = 0
 c119: x483 - x484 + x493 - x495 + x503 - x506 - x518 - x537 - x539  = 0
 c120: x543 - x544 + x553 - x555 + x563 - x566 - x578 - x597 - x599  = 0
 c121: x8 - x12 - x16 + x29 - x32 + x35 + x37 - x42 - x49 + x51 + x56 - x58
        = 0
 c122: x68 - x72 - x76 + x89 - x92 + x95 + x97 - x102 - x109 + x111 + x116
       - x118  = 0
 c123: x128 - x132 - x136 + x149 - x152 + x155 + x157 - x162 - x169 + x171
       + x176 - x178  = 0
 c124: x188 - x192 - x196 + x209 - x212 + x215 + x217 - x222 - x229 + x231
       + x236 - x238  = 0
 c125: x248 - x252 - x256 + x269 - x272 + x275 + x277 - x282 - x289 + x291
       + x296 - x298  = 1
 c126: x308 - x312 - x316 + x329 - x332 + x335 + x337 - x342 - x349 + x351
       + x356 - x358  = 0
 c127: x368 - x372 - x376 + x389 - x392 + x395 + x397 - x402 - x409 + x411
       + x416 - x418  = 0
 c128: x428 - x432 - x436 + x449 - x452 + x455 + x457 - x462 - x469 + x471
       + x476 - x478  = -1
 c129: x488 - x492 - x496 + x509 - x512 + x515 + x517 - x522 - x529 + x531
       + x536 - x538  = 0
 c130: x548 - x552 - x556 + x569 - x572 + x575 + x577 - x582 - x589 + x591
       + x596 - x598  = 0
 c131: - x8 + x17 - x19 - x31 + x33 + x49 + x55 + x59  = 0
 c132: - x68 + x77 - x79 - x91 + x93 + x109 + x115 + x119  = 0
 c133: - x128 + x137 - x139 - x151 + x153 + x169 + x175 + x179  = 0
 c134: - x188 + x197 - x199 - x211 + x213 + x229 + x235 + x239  = 0
 c135: - x248 + x257 - x259 - x271 + x273 + x289 + x295 + x299  = 0
 c136: - x308 + x317 - x319 - x331 + x333 + x349 + x355 + x359  = 0
 c137: - x368 + x377 - x379 - x391 + x393 + x409 + x415 + x419  = 0
 c138: - x428 + x437 - x439 - x451 + x453 + x469 + x475 + x479  = 0
 c139: - x488 + x497 - x499 - x511 + x513 + x529 + x535 + x539  = 0
 c140: - x548 + x557 - x559 - x571 + x573 + x589 + x595 + x599  = 0
 c141: x2 + x4 - x22 + x25 - x33 - x39 - x43 - x44 + x52  = 0
 c142: x62 + x64 - x82 + x85 - x93 - x99 - x103 - x104 + x112  = 0
 c143: x122 + x124 - x142 + x145 - x153 - x159 - x163 - x164 + x172  = 0
 c144: x182 + x184 - x202 + x205 - x213 - x219 - x223 - x224 + x232  = 0
 c145: x242 + x244 - x262 + x265 - x273 - x279 - x283 - x284 + x292  = 0
 c146: x302 + x304 - x322 + x325 - x333 - x339 - x343 - x344 + x352  = 0
 c147: x362 + x364 - x382 + x385 - x393 - x399 - x403 - x404 + x412  = 0
 c148: x422 + x424 - x442 + x445 - x453 - x459 - x463 - x464 + x472  = 0
 c149: x482 + x484 - x502 + x505 - x513 - x519 - x523 - x524 + x532  = 0
 c150: x542 + x544 - x562 + x565 - x573 - x579 - x583 - x584 + x592  = 0
 c151: 4 x1 + 4 x61 + 4 x121 + 4 x181 + 4 x241 + 4 x301 + 4 x361 + 4 x421
       + 4 x481 + 4 x541 - 5 x601 <= 0
 c152: 4 x2 + 4 x62 + 4 x122 + 4 x182 + 4 x242 + 4 x302 + 4 x362 + 4 x422
       + 4 x482 + 4 x542 - 5 x602 <= 0
 c153: 4 x3 + 4 x63 + 4 x123 + 4 x183 + 4 x243 + 4 x303 + 4 x363 + 4 x423
       + 4 x483 + 4 x543 - 5 x603 <= 0
 c154: 4 x4 + 4 x64 + 4 x124 + 4 x184 + 4 x244 + 4 x304 + 4 x364 + 4 x424
       + 4 x484 + 4 x544 - 5 x604 <= 0
 c155: 4 x5 + 4 x65 + 4 x125 + 4 x185 + 4 x245 + 4 x305 + 4 x365 + 4 x425
       + 4 x485 + 4 x545 - 5 x605 <= 0
 c156: 4 x6 + 4 x66 + 4 x126 + 4 x186 + 4 x246 + 4 x306 + 4 x366 + 4 x426
       + 4 x486 + 4 x546 - 5 x606 <= 0
 c157: 4 x7 + 4 x67 + 4 x127 + 4 x187 + 4 x247 + 4 x307 + 4 x367 + 4 x427
       + 4 x487 + 4 x547 - 5 x607 <= 0
 c158: 4 x8 + 4 x68 + 4 x128 + 4 x188 + 4 x248 + 4 x308 + 4 x368 + 4 x428
       + 4 x488 + 4 x548 - 5 x608 <= 0
 c159: 4 x9 + 4 x69 + 4 x129 + 4 x189 + 4 x249 + 4 x309 + 4 x369 + 4 x429
       + 4 x489 + 4 x549 - 5 x609 <= 0
 c160: 4 x10 + 4 x70 + 4 x130 + 4 x190 + 4 x250 + 4 x310 + 4 x370 + 4 x430
       + 4 x490 + 4 x550 - 5 x610 <= 0
 c161: 4 x11 + 4 x71 + 4 x131 + 4 x191 + 4 x251 + 4 x311 + 4 x371 + 4 x431
       + 4 x491 + 4 x551 - 5 x611 <= 0
 c162: 4 x12 + 4 x72 + 4 x132 + 4 x192 + 4 x252 + 4 x312 + 4 x372 + 4 x432
       + 4 x492 + 4 x552 - 5 x612 <= 0
 c163: 4 x13 + 4 x73 + 4 x133 + 4 x193 + 4 x253 + 4 x313 + 4 x373 + 4 x433
       + 4 x493 + 4 x553 - 5 x613 <= 0
 c164: 4 x14 + 4 x74 + 4 x134 + 4 x194 + 4 x254 + 4 x314 + 4 x374 + 4 x434
       + 4 x494 + 4 x554 - 5 x614 <= 0
 c165: 4 x15 + 4 x75 + 4 x135 + 4 x195 + 4 x255 + 4 x315 + 4 x375 + 4 x435
       + 4 x495 + 4 x555 - 5 x615 <= 0
 c166: 4 x16 + 4 x76 + 4 x136 + 4 x196 + 4 x256 + 4 x316 + 4 x376 + 4 x436
       + 4 x496 + 4 x556 - 5 x616 <= 0
 c167: 4 x17 + 4 x77 + 4 x137 + 4 x197 + 4 x257 + 4 x317 + 4 x377 + 4 x437
       + 4 x497 + 4 x557 - 5 x617 <= 0
 c168: 4 x18 + 4 x78 + 4 x138 + 4 x198 + 4 x258 + 4 x318 + 4 x378 + 4 x438
       + 4 x498 + 4 x558 - 5 x618 <= 0
 c169: 4 x19 + 4 x79 + 4 x139 + 4 x199 + 4 x259 + 4 x319 + 4 x379 + 4 x439
       + 4 x499 + 4 x559 - 5 x619 <= 0
 c170: 4 x20 + 4 x80 + 4 x140 + 4 x200 + 4 x260 + 4 x320 + 4 x380 + 4 x440
       + 4 x500 + 4 x560 - 5 x620 <= 0
 c171: 4 x21 + 4 x81 + 4 x141 + 4 x201 + 4 x261 + 4 x321 + 4 x381 + 4 x441
       + 4 x501 + 4 x561 - 5 x621 <= 0
 c172: 4 x22 + 4 x82 + 4 x142 + 4 x202 + 4 x262 + 4 x322 + 4 x382 + 4 x442
       + 4 x502 + 4 x562 - 5 x622 <= 0
 c173: 4 x23 + 4 x83 + 4 x143 + 4 x203 + 4 x263 + 4 x323 + 4 x383 + 4 x443
       + 4 x503 + 4 x563 - 5 x623 <= 0
 c174: 4 x24 + 4 x84 + 4 x144 + 4 x204 + 4 x264 + 4 x324 + 4 x384 + 4 x444
       + 4 x504 + 4 x564 - 5 x624 <= 0
 c175: 4 x25 + 4 x85 + 4 x145 + 4 x205 + 4 x265 + 4 x325 + 4 x385 + 4 x445
       + 4 x505 + 4 x565 - 5 x625 <= 0
 c176: 4 x26 + 4 x86 + 4 x146 + 4 x206 + 4 x266 + 4 x326 + 4 x386 + 4 x446
       + 4 x506 + 4 x566 - 5 x626 <= 0
 c177: 4 x27 + 4 x87 + 4 x147 + 4 x207 + 4 x267 + 4 x327 + 4 x387 + 4 x447
       + 4 x507 + 4 x567 - 5 x627 <= 0
 c178: 4 x28 + 4 x88 + 4 x148 + 4 x208 + 4 x268 + 4 x328 + 4 x388 + 4 x448
       + 4 x508 + 4 x568 - 5 x628 <= 0
 c179: 4 x29 + 4 x89 + 4 x149 + 4 x209 + 4 x269 + 4 x329 + 4 x389 + 4 x449
       + 4 x509 + 4 x569 - 5 x629 <= 0
 c180: 4 x30 + 4 x90 + 4 x150 + 4 x210 + 4 x270 + 4 x330 + 4 x390 + 4 x450
       + 4 x510 + 4 x570 - 5 x630 <= 0
 c181: 4 x31 + 4 x91 + 4 x151 + 4 x211 + 4 x271 + 4 x331 + 4 x391 + 4 x451
       + 4 x511 + 4 x571 - 5 x631 <= 0
 c182: 4 x32 + 4 x92 + 4 x152 + 4 x212 + 4 x272 + 4 x332 + 4 x392 + 4 x452
       + 4 x512 + 4 x572 - 5 x632 <= 0
 c183: 4 x33 + 4 x93 + 4 x153 + 4 x213 + 4 x273 + 4 x333 + 4 x393 + 4 x453
       + 4 x513 + 4 x573 - 5 x633 <= 0
 c184: 4 x34 + 4 x94 + 4 x154 + 4 x214 + 4 x274 + 4 x334 + 4 x394 + 4 x454
       + 4 x514 + 4 x574 - 5 x634 <= 0
 c185: 4 x35 + 4 x95 + 4 x155 + 4 x215 + 4 x275 + 4 x335 + 4 x395 + 4 x455
       + 4 x515 + 4 x575 - 5 x635 <= 0
 c186: 4 x36 + 4 x96 + 4 x156 + 4 x216 + 4 x276 + 4 x336 + 4 x396 + 4 x456
       + 4 x516 + 4 x576 - 5 x636 <= 0
 c187: 4 x37 + 4 x97 + 4 x157 + 4 x217 + 4 x277 + 4 x337 + 4 x397 + 4 x457
       + 4 x517 + 4 x577 - 5 x637 <= 0
 c188: 4 x38 + 4 x98 + 4 x158 + 4 x218 + 4 x278 + 4 x338 + 4 x398 + 4 x458
       + 4 x518 + 4 x578 - 5 x638 <= 0
 c189: 4 x39 + 4 x99 + 4 x159 + 4 x219 + 4 x279 + 4 x339 + 4 x399 + 4 x459
       + 4 x519 + 4 x579 - 5 x639 <= 0
 c190: 4 x40 + 4 x100 + 4 x160 + 4 x220 + 4 x280 + 4 x340 + 4 x400 + 4 x460
       + 4 x520 + 4 x580 - 5 x640 <= 0
 c191: 4 x41 + 4 x101 + 4 x161 + 4 x221 + 4 x281 + 4 x341 + 4 x401 + 4 x461
       + 4 x521 + 4 x581 - 5 x641 <= 0
 c192: 4 x42 + 4 x102 + 4 x162 + 4 x222 + 4 x282 + 4 x342 + 4 x402 + 4 x462
       + 4 x522 + 4 x582 - 5 x642 <= 0
 c193: 4 x43 + 4 x103 + 4 x163 + 4 x223 + 4 x283 + 4 x343 + 4 x403 + 4 x463
       + 4 x523 + 4 x583 - 5 x643 <= 0
 c194: 4 x44 + 4 x104 + 4 x164 + 4 x224 + 4 x284 + 4 x344 + 4 x404 + 4 x464
       + 4 x524 + 4 x584 - 5 x644 <= 0
 c195: 4 x45 + 4 x105 + 4 x165 + 4 x225 + 4 x285 + 4 x345 + 4 x405 + 4 x465
       + 4 x525 + 4 x585 - 5 x645 <= 0
 c196: 4 x46 + 4 x106 + 4 x166 + 4 x226 + 4 x286 + 4 x346 + 4 x406 + 4 x466
       + 4 x526 + 4 x586 - 5 x646 <= 0
 c197: 4 x47 + 4 x107 + 4 x167 + 4 x227 + 4 x287 + 4 x347 + 4 x407 + 4 x467
       + 4 x527 + 4 x587 - 5 x647 <= 0
 c198: 4 x48 + 4 x108 + 4 x168 + 4 x228 + 4 x288 + 4 x348 + 4 x408 + 4 x468
       + 4 x528 + 4 x588 - 5 x648 <= 0
 c199: 4 x49 + 4 x109 + 4 x169 + 4 x229 + 4 x289 + 4 x349 + 4 x409 + 4 x469
       + 4 x529 + 4 x589 - 5 x649 <= 0
 c200: 4 x50 + 4 x110 + 4 x170 + 4 x230 + 4 x290 + 4 x350 + 4 x410 + 4 x470
       + 4 x530 + 4 x590 - 5 x650 <= 0
 c201: 4 x51 + 4 x111 + 4 x171 + 4 x231 + 4 x291 + 4 x351 + 4 x411 + 4 x471
       + 4 x531 + 4 x591 - 5 x651 <= 0
 c202: 4 x52 + 4 x112 + 4 x172 + 4 x232 + 4 x292 + 4 x352 + 4 x412 + 4 x472
       + 4 x532 + 4 x592 - 5 x652 <= 0
 c203: 4 x53 + 4 x113 + 4 x173 + 4 x233 + 4 x293 + 4 x353 + 4 x413 + 4 x473
       + 4 x533 + 4 x593 - 5 x653 <= 0
 c204: 4 x54 + 4 x114 + 4 x174 + 4 x234 + 4 x294 + 4 x354 + 4 x414 + 4 x474
       + 4 x534 + 4 x594 - 5 x654 <= 0
 c205: 4 x55 + 4 x115 + 4 x175 + 4 x235 + 4 x295 + 4 x355 + 4 x415 + 4 x475
       + 4 x535 + 4 x595 - 5 x655 <= 0
 c206: 4 x56 + 4 x116 + 4 x176 + 4 x236 + 4 x296 + 4 x356 + 4 x416 + 4 x476
       + 4 x536 + 4 x596 - 5 x656 <= 0
 c207: 4 x57 + 4 x117 + 4 x177 + 4 x237 + 4 x297 + 4 x357 + 4 x417 + 4 x477
       + 4 x537 + 4 x597 - 5 x657 <= 0
 c208: 4 x58 + 4 x118 + 4 x178 + 4 x238 + 4 x298 + 4 x358 + 4 x418 + 4 x478
       + 4 x538 + 4 x598 - 5 x658 <= 0
 c209: 4 x59 + 4 x119 + 4 x179 + 4 x239 + 4 x299 + 4 x359 + 4 x419 + 4 x479
       + 4 x539 + 4 x599 - 5 x659 <= 0
 c210: 4 x60 + 4 x120 + 4 x180 + 4 x240 + 4 x300 + 4 x360 + 4 x420 + 4 x480
       + 4 x540 + 4 x600 - 5 x660 <= 0
Bounds
 0 <= x1 <= 1
 0 <= x2 <= 1
 0 <= x3 <= 1
 0 <= x4 <= 1
 0 <= x5 <= 1
 0 <= x6 <= 1
 0 <= x7 <= 1
 0 <= x8 <= 1
 0 <= x9 <= 1
 0 <= x10 <= 1
 0 <= x11 <= 1
 0 <= x12 <= 1
 0 <= x13 <= 1
 0 <= x14 <= 1
 0 <= x15 <= 1
 0 <= x16 <= 1
 0 <= x17 <= 1
 0 <= x18 <= 1
 0 <= x19 <= 1
 0 <= x20 <= 1
 0 <= x21 <= 1
 0 <= x22 <= 1
 0 <= x23 <= 1
 0 <= x24 <= 1
 0 <= x25 <= 1
 0 <= x26 <= 1
 0 <= x27 <= 1
 0 <= x28 <= 1
 0 <= x29 <= 1
 0 <= x30 <= 1
 0 <= x31 <= 1
 0 <= x32 <= 1
 0 <= x33 <= 1
 0 <= x34 <= 1
 0 <= x35 <= 1
 0 <= x36 <= 1
 0 <= x37 <= 1
 0 <= x38 <= 1
 0 <= x39 <= 1
 0 <= x40 <= 1
 0 <= x41 <= 1
 0 <= x42 <= 1
 0 <= x43 <= 1
 0 <= x44 <= 1
 0 <= x45 <= 1
 0 <= x46 <= 1
 0 <= x47 <= 1
 0 <= x48 <= 1
 0 <= x49 <= 1
 0 <= x50 <= 1
 0 <= x51 <= 1
 0 <= x52 <= 1
 0 <= x53 <= 1
 0 <= x54 <= 1
 0 <= x55 <= 1
 0 <= x56 <= 1
 0 <= x57 <= 1
 0 <= x58 <= 1
 0 <= x59 <= 1
 0 <= x60 <= 1
 0 <= x61 <= 1
 0 <= x62 <= 1
 0 <= x63 <= 1
 0 <= x64 <= 1
 0 <= x65 <= 1
 0 <= x66 <= 1
 0 <= x67 <= 1
 0 <= x68 <= 1
 0 <= x69 <= 1
 0 <= x70 <= 1
 0 <= x71 <= 1
 0 <= x72 <= 1
 0 <= x73 <= 1
 0 <= x74 <= 1
 0 <= x75 <= 1
 0 <= x76 <= 1
 0 <= x77 <= 1
 0 <= x78 <= 1
 0 <= x79 <= 1
 0 <= x80 <= 1
 0 <= x81 <= 1
 0 <= x82 <= 1
 0 <= x83 <= 1
 0 <= x84 <= 1
 0 <= x85 <= 1
 0 <= x86 <= 1
 0 <= x87 <= 1
 0 <= x88 <= 1
 0 <= x89 <= 1
 0 <= x90 <= 1
 0 <= x91 <= 1
 0 <= x92 <= 1
 0 <= x93 <= 1
 0 <= x94 <= 1
 0 <= x95 <= 1
 0 <= x96 <= 1
 0 <= x97 <= 1
 0 <= x98 <= 1
 0 <= x99 <= 1
 0 <= x100 <= 1
 0 <= x101 <= 1
 0 <= x102 <= 1
 0 <= x103 <= 1
 0 <= x104 <= 1
 0 <= x105 <= 1
 0 <= x106 <= 1
 0 <= x107 <= 1
 0 <= x108 <= 1
 0 <= x109 <= 1
 0 <= x110 <= 1
 0 <= x111 <= 1
 0 <= x112 <= 1
 0 <= x113 <= 1
 0 <= x114 <= 1
 0 <= x115 <= 1
 0 <= x116 <= 1
 0 <= x117 <= 1
 0 <= x118 <= 1
 0 <= x119 <= 1
 0 <= x120 <= 1
 0 <= x121 <= 1
 0 <= x122 <= 1
 0 <= x123 <= 1
 0 <= x124 <= 1
 0 <= x125 <= 1
 0 <= x126 <= 1
 0 <= x127 <= 1
 0 <= x128 <= 1
 0 <= x129 <= 1
 0 <= x130 <= 1
 0 <= x131 <= 1
 0 <= x132 <= 1
 0 <= x133 <= 1
 0 <= x134 <= 1
 0 <= x135 <= 1
 0 <= x136 <= 1
 0 <= x137 <= 1
 0 <= x138 <= 1
 0 <= x139 <= 1
 0 <= x140 <= 1
 0 <= x141 <= 1
 0 <= x142 <= 1
 0 <= x143 <= 1
 0 <= x144 <= 1
 0 <= x145 <= 1
 0 <= x146 <= 1
 0 <= x147 <= 1
 0 <= x148 <= 1
 0 <= x149 <= 1
 0 <= x150 <= 1
 0 <= x151 <= 1
 0 <= x152 <= 1
 0 <= x153 <= 1
 0 <= x154 <= 1
 0 <= x155 <= 1
 0 <= x156 <= 1
 0 <= x157 <= 1
 0 <= x158 <= 1
 0 <= x159 <= 1
 0 <= x160 <= 1
 0 <= x161 <= 1
 0 <= x162 <= 1
 0 <= x163 <= 1
 0 <= x164 <= 1
 0 <= x165 <= 1
 0 <= x166 <= 1
 0 <= x167 <= 1
 0 <= x168 <= 1
 0 <= x169 <= 1
 0 <= x170 <= 1
 0 <= x171 <= 1
 0 <= x172 <= 1
 0 <= x173 <= 1
 0 <= x174 <= 1
 0 <= x175 <= 1
 0 <= x176 <= 1
 0 <= x177 <= 1
 0 <= x178 <= 1
 0 <= x179 <= 1
 0 <= x180 <= 1
 0 <= x181 <= 1
 0 <= x182 <= 1
 0 <= x183 <= 1
 0 <= x184 <= 1
 0 <= x185 <= 1
 0 <= x186 <= 1
 0 <= x187 <= 1
 0 <= x188 <= 1
 0 <= x189 <= 1
 0 <= x190 <= 1
 0 <= x191 <= 1
 0 <= x192 <= 1
 0 <= x193 <= 1
 0 <= x194 <= 1
 0 <= x195 <= 1
 0 <= x196 <= 1
 0 <= x197 <= 1
 0 <= x198 <= 1
 0 <= x199 <= 1
 0 <= x200 <= 1
 0 <= x201 <= 1
 0 <= x202 <= 1
 0 <= x203 <= 1
 0 <= x204 <= 1
 0 <= x205 <= 1
 0 <= x206 <= 1
 0 <= x207 <= 1
 0 <= x208 <= 1
 0 <= x209 <= 1
 0 <= x210 <= 1
 0 <= x211 <= 1
 0 <= x212 <= 1
 0 <= x213 <= 1
 0 <= x214 <= 1
 0 <= x215 <= 1
 0 <= x216 <= 1
 0 <= x217 <= 1
 0 <= x218 <= 1
 0 <= x219 <= 1
 0 <= x220 <= 1
 0 <= x221 <= 1
 0 <= x222 <= 1
 0 <= x223 <= 1
 0 <= x224 <= 1
 0 <= x225 <= 1
 0 <= x226 <= 1
 0 <= x227 <= 1
 0 <= x228 <= 1
 0 <= x229 <= 1
 0 <= x230 <= 1
 0 <= x231 <= 1
 0 <= x232 <= 1
 0 <= x233 <= 1
 0 <= x234 <= 1
 0 <= x235 <= 1
 0 <= x236 <= 1
 0 <= x237 <= 1
 0 <= x238 <= 1
 0 <= x239 <= 1
 0 <= x240 <= 1
 0 <= x241 <= 1
 0 <= x242 <= 1
 0 <= x243 <= 1
 0 <= x244 <= 1
 0 <= x245 <= 1
 0 <= x246 <= 1
 0 <= x247 <= 1
 0 <= x248 <= 1
 0 <= x249 <= 1
 0 <= x250 <= 1
 0 <= x251 <= 1
 0 <= x252 <= 1
 0 <= x253 <= 1
 0 <= x254 <= 1
 0 <= x255 <= 1
 0 <= x256 <= 1
 0 <= x257 <= 1
 0 <= x258 <= 1
 0 <= x259 <= 1
 0 <= x260 <= 1
 0 <= x261 <= 1
 0 <= x262 <= 1
 0 <= x263 <= 1
 0 <= x264 <= 1
 0 <= x265 <= 1
 0 <= x266 <= 1
 0 <= x267 <= 1
 0 <= x268 <= 1
 0 <= x269 <= 1
 0 <= x270 <= 1
 0 <= x271 <= 1
 0 <= x272 <= 1
 0 <= x273 <= 1
 0 <= x274 <= 1
 0 <= x275 <= 1
 0 <= x276 <= 1
 0 <= x277 <= 1
 0 <= x278 <= 1
 0 <= x279 <= 1
 0 <= x280 <= 1
 0 <= x281 <= 1
 0 <= x282 <= 1
 0 <= x283 <= 1
 0 <= x284 <= 1
 0 <= x285 <= 1
 0 <= x286 <= 1
 0 <= x287 <= 1
 0 <= x288 <= 1
 0 <= x289 <= 1
 0 <= x290 <= 1
 0 <= x291 <= 1
 0 <= x292 <= 1
 0 <= x293 <= 1
 0 <= x294 <= 1
 0 <= x295 <= 1
 0 <= x296 <= 1
 0 <= x297 <= 1
 0 <= x298 <= 1
 0 <= x299 <= 1
 0 <= x300 <= 1
 0 <= x301 <= 1
 0 <= x302 <= 1
 0 <= x303 <= 1
 0 <= x304 <= 1
 0 <= x305 <= 1
 0 <= x306 <= 1
 0 <= x307 <= 1
 0 <= x308 <= 1
 0 <= x309 <= 1
 0 <= x310 <= 1
 0 <= x311 <= 1
 0 <= x312 <= 1
 0 <= x313 <= 1
 0 <= x314 <= 1
 0 <= x315 <= 1
 0 <= x316 <= 1
 0 <= x317 <= 1
 0 <= x318 <= 1
 0 <= x319 <= 1
 0 <= x320 <= 1
 0 <= x321 <= 1
 0 <= x322 <= 1
 0 <= x323 <= 1
 0 <= x324 <= 1
 0 <= x325 <= 1
 0 <= x326 <= 1
 0 <= x327 <= 1
 0 <= x328 <= 1
 0 <= x329 <= 1
 0 <= x330 <= 1
 0 <= x331 <= 1
 0 <= x332 <= 1
 0 <= x333 <= 1
 0 <= x334 <= 1
 0 <= x335 <= 1
 0 <= x336 <= 1
 0 <= x337 <= 1
 0 <= x338 <= 1
 0 <= x339 <= 1
 0 <= x340 <= 1
 0 <= x341 <= 1
 0 <= x342 <= 1
 0 <= x343 <= 1
 0 <= x344 <= 1
 0 <= x345 <= 1
 0 <= x346 <= 1
 0 <= x347 <= 1
 0 <= x348 <= 1
 0 <= x349 <= 1
 0 <= x350 <= 1
 0 <= x351 <= 1
 0 <= x352 <= 1
 0 <= x353 <= 1
 0 <= x354 <= 1
 0 <= x355 <= 1
 0 <= x356 <= 1
 0 <= x357 <= 1
 0 <= x358 <= 1
 0 <= x359 <= 1
 0 <= x360 <= 1
 0 <= x361 <= 1
 0 <= x362 <= 1
 0 <= x363 <= 1
 0 <= x364 <= 1
 0 <= x365 <= 1
 0 <= x366 <= 1
 0 <= x367 <= 1
 0 <= x368 <= 1
 0 <= x369 <= 1
 0 <= x370 <= 1
 0 <= x371 <= 1
 0 <= x372 <= 1
 0 <= x373 <= 1
 0 <= x374 <= 1
 0 <= x375 <= 1
 0 <= x376 <= 1
 0 <= x377 <= 1
 0 <= x378 <= 1
 0 <= x379 <= 1
 0 <= x380 <= 1
 0 <= x381 <= 1
 0 <= x382 <= 1
 0 <= x383 <= 1
 0 <= x384 <= 1
 0 <= x385 <= 1
 0 <= x386 <= 1
 0 <= x387 <= 1
 0 <= x388 <= 1
 0 <= x389 <= 1
 0 <= x390 <= 1
 0 <= x391 <= 1
 0 <= x392 <= 1
 0 <= x393 <= 1
 0 <= x394 <= 1
 0 <= x395 <= 1
 0 <= x396 <= 1
 0 <= x397 <= 1
 0 <= x398 <= 1
 0 <= x399 <= 1
 0 <= x400 <= 1
 0 <= x401 <= 1
 0 <= x402 <= 1
 0 <= x403 <= 1
 0 <= x404 <= 1
 0 <= x405 <= 1
 0 <= x406 <= 1
 0 <= x407 <= 1
 0 <= x408 <= 1
 0 <= x409 <= 1
 0 <= x410 <= 1
 0 <= x411 <= 1
 0 <= x412 <= 1
 0 <= x413 <= 1
 0 <= x414 <= 1
 0 <= x415 <= 1
 0 <= x416 <= 1
 0 <= x417 <= 1
 0 <= x418 <= 1
 0 <= x419 <= 1
 0 <= x420 <= 1
 0 <= x421 <= 1
 0 <= x422 <= 1
 0 <= x423 <= 1
 0 <= x424 <= 1
 0 <= x425 <= 1
 0 <= x426 <= 1
 0 <= x427 <= 1
 0 <= x428 <= 1
 0 <= x429 <= 1
 0 <= x430 <= 1
 0 <= x431 <= 1
 0 <= x432 <= 1
 0 <= x433 <= 1
 0 <= x434 <= 1
 0 <= x435 <= 1
 0 <= x436 <= 1
 0 <= x437 <= 1
 0 <= x438 <= 1
 0 <= x439 <= 1
 0 <= x440 <= 1
 0 <= x441 <= 1
 0 <= x442 <= 1
 0 <= x443 <= 1
 0 <= x444 <= 1
 0 <= x445 <= 1
 0 <= x446 <= 1
 0 <= x447 <= 1
 0 <= x448 <= 1
 0 <= x449 <= 1
 0 <= x450 <= 1
 0 <= x451 <= 1
 0 <= x452 <= 1
 0 <= x453 <= 1
 0 <= x454 <= 1
 0 <= x455 <= 1
 0 <= x456 <= 1
 0 <= x457 <= 1
 0 <= x458 <= 1
 0 <= x459 <= 1
 0 <= x460 <= 1
 0 <= x461 <= 1
 0 <= x462 <= 1
 0 <= x463 <= 1
 0 <= x464 <= 1
 0 <= x465 <= 1
 0 <= x466 <= 1
 0 <= x467 <= 1
 0 <= x468 <= 1
 0 <= x469 <= 1
 0 <= x470 <= 1
 0 <= x471 <= 1
 0 <= x472 <= 1
 0 <= x473 <= 1
 0 <= x474 <= 1
 0 <= x475 <= 1
 0 <= x476 <= 1
 0 <= x477 <= 1
 0 <= x478 <= 1
 0 <= x479 <= 1
 0 <= x480 <= 1
 0 <= x481 <= 1
 0 <= x482 <= 1
 0 <= x483 <= 1
 0 <= x484 <= 1
 0 <= x485 <= 1
 0 <= x486 <= 1
 0 <= x487 <= 1
 0 <= x488 <= 1
 0 <= x489 <= 1
 0 <= x490 <= 1
 0 <= x491 <= 1
 0 <= x492 <= 1
 0 <= x493 <= 1
 0 <= x494 <= 1
 0 <= x495 <= 1
 0 <= x496 <= 1
 0 <= x497 <= 1
 0 <= x498 <= 1
 0 <= x499 <= 1
 0 <= x500 <= 1
 0 <= x501 <= 1
 0 <= x502 <= 1
 0 <= x503 <= 1
 0 <= x504 <= 1
 0 <= x505 <= 1
 0 <= x506 <= 1
 0 <= x507 <= 1
 0 <= x508 <= 1
 0 <= x509 <= 1
 0 <= x510 <= 1
 0 <= x511 <= 1
 0 <= x512 <= 1
 0 <= x513 <= 1
 0 <= x514 <= 1
 0 <= x515 <= 1
 0 <= x516 <= 1
 0 <= x517 <= 1
 0 <= x518 <= 1
 0 <= x519 <= 1
 0 <= x520 <= 1
 0 <= x521 <= 1
 0 <= x522 <= 1
 0 <= x523 <= 1
 0 <= x524 <= 1
 0 <= x525 <= 1
 0 <= x526 <= 1
 0 <= x527 <= 1
 0 <= x528 <= 1
 0 <= x529 <= 1
 0 <= x530 <= 1
 0 <= x531 <= 1
 0 <= x532 <= 1
 0 <= x533 <= 1
 0 <= x534 <= 1
 0 <= x535 <= 1
 0 <= x536 <= 1
 0 <= x537 <= 1
 0 <= x538 <= 1
 0 <= x539 <= 1
 0 <= x540 <= 1
 0 <= x541 <= 1
 0 <= x542 <= 1
 0 <= x543 <= 1
 0 <= x544 <= 1
 0 <= x545 <= 1
 0 <= x546 <= 1
 0 <= x547 <= 1
 0 <= x548 <= 1
 0 <= x549 <= 1
 0 <= x550 <= 1
 0 <= x551 <= 1
 0 <= x552 <= 1
 0 <= x553 <= 1
 0 <= x554 <= 1
 0 <= x555 <= 1
 0 <= x556 <= 1
 0 <= x557 <= 1
 0 <= x558 <= 1
 0 <= x559 <= 1
 0 <= x560 <= 1
 0 <= x561 <= 1
 0 <= x562 <= 1
 0 <= x563 <= 1
 0 <= x564 <= 1
 0 <= x565 <= 1
 0 <= x566 <= 1
 0 <= x567 <= 1
 0 <= x568 <= 1
 0 <= x569 <= 1
 0 <= x570 <= 1
 0 <= x571 <= 1
 0 <= x572 <= 1
 0 <= x573 <= 1
 0 <= x574 <= 1
 0 <= x575 <= 1
 0 <= x576 <= 1
 0 <= x577 <= 1
 0 <= x578 <= 1
 0 <= x579 <= 1
 0 <= x580 <= 1
 0 <= x581 <= 1
 0 <= x582 <= 1
 0 <= x583 <= 1
 0 <= x584 <= 1
 0 <= x585 <= 1
 0 <= x586 <= 1
 0 <= x587 <= 1
 0 <= x588 <= 1
 0 <= x589 <= 1
 0 <= x590 <= 1
 0 <= x591 <= 1
 0 <= x592 <= 1
 0 <= x593 <= 1
 0 <= x594 <= 1
 0 <= x595 <= 1
 0 <= x596 <= 1
 0 <= x597 <= 1
 0 <= x598 <= 1
 0 <= x599 <= 1
 0 <= x600 <= 1
 0 <= x601 <= 1
 0 <= x602 <= 1
 0 <= x603 <= 1
 0 <= x604 <= 1
 0 <= x605 <= 1
 0 <= x606 <= 1
 0 <= x607 <= 1
 0 <= x608 <= 1
 0 <= x609 <= 1
 0 <= x610 <= 1
 0 <= x611 <= 1
 0 <= x612 <= 1
 0 <= x613 <= 1
 0 <= x614 <= 1
 0 <= x615 <= 1
 0 <= x616 <= 1
 0 <= x617 <= 1
 0 <= x618 <= 1
 0 <= x619 <= 1
 0 <= x620 <= 1
 0 <= x621 <= 1
 0 <= x622 <= 1
 0 <= x623 <= 1
 0 <= x624 <= 1
 0 <= x625 <= 1
 0 <= x626 <= 1
 0 <= x627 <= 1
 0 <= x628 <= 1
 0 <= x629 <= 1
 0 <= x630 <= 1
 0 <= x631 <= 1
 0 <= x632 <= 1
 0 <= x633 <= 1
 0 <= x634 <= 1
 0 <= x635 <= 1
 0 <= x636 <= 1
 0 <= x637 <= 1
 0 <= x638 <= 1
 0 <= x639 <= 1
 0 <= x640 <= 1
 0 <= x641 <= 1
 0 <= x642 <= 1
 0 <= x643 <= 1
 0 <= x644 <= 1
 0 <= x645 <= 1
 0 <= x646 <= 1
 0 <= x647 <= 1
 0 <= x648 <= 1
 0 <= x649 <= 1
 0 <= x650 <= 1
 0 <= x651 <= 1
 0 <= x652 <= 1
 0 <= x653 <= 1
 0 <= x654 <= 1
 0 <= x655 <= 1
 0 <= x656 <= 1
 0 <= x657 <= 1
 0 <= x658 <= 1
 0 <= x659 <= 1
 0 <= x660 <= 1
Binaries
 x601  x602  x603  x604  x605  x606  x607  x608  x609  x610  x611  x612  x613 
 x614  x615  x616  x617  x618  x619  x620  x621  x622  x623  x624  x625  x626 
 x627  x628  x629  x630  x631  x632  x633  x634  x635  x636  x637  x638  x639 
 x640  x641  x642  x643  x644  x645  x646  x647  x648  x649  x650  x651  x652 
 x653  x654  x655  x656  x657  x658  x659  x660 
End
